# Objective value = 5
x0,1_3 1
x0,1_7 0
x0,1_10 0
x0,1_13 0
x0,1_14 0
x0,1_17 0
x0,1_20 0
x0,1_21 0
x0,1_31 0
x0,1_34 0
x0,2_3 0
x0,2_7 0
x0,2_10 0
x0,2_13 1
x0,2_14 0
x0,2_17 0
x0,2_20 0
x0,2_21 0
x0,2_31 0
x0,2_34 0
x0,3_3 0
x0,3_7 0
x0,3_10 0
x0,3_13 0
x0,3_14 0
x0,3_17 0
x0,3_20 1
x0,3_21 0
x0,3_31 0
x0,3_34 0
x0,4_3 0
x0,4_7 0
x0,4_10 0
x0,4_13 0
x0,4_14 0
x0,4_17 0
x0,4_20 0
x0,4_21 0
x0,4_31 0
x0,4_34 1
x0,5_3 0
x0,5_7 0
x0,5_10 0
x0,5_13 0
x0,5_14 0
x0,5_17 0
x0,5_20 0
x0,5_21 0
x0,5_31 0
x0,5_34 0
x0,6_3 0
x0,6_7 0
x0,6_10 0
x0,6_13 0
x0,6_14 0
x0,6_17 0
x0,6_20 0
x0,6_21 0
x0,6_31 0
x0,6_34 0
x0,7_3 0
x0,7_7 0
x0,7_10 0
x0,7_13 0
x0,7_14 0
x0,7_17 0
x0,7_20 0
x0,7_21 0
x0,7_31 0
x0,7_34 0
x0,8_3 0
x0,8_7 0
x0,8_10 0
x0,8_13 0
x0,8_14 0
x0,8_17 0
x0,8_20 0
x0,8_21 0
x0,8_31 0
x0,8_34 0
x0,9_3 0
x0,9_7 0
x0,9_10 0
x0,9_13 0
x0,9_14 0
x0,9_17 0
x0,9_20 0
x0,9_21 0
x0,9_31 0
x0,9_34 0
x0,10_3 0
x0,10_7 0
x0,10_10 0
x0,10_13 0
x0,10_14 0
x0,10_17 0
x0,10_20 0
x0,10_21 0
x0,10_31 0
x0,10_34 0
x1,2_3 0
x1,2_7 0
x1,2_10 1
x1,2_13 0
x1,2_14 0
x1,2_17 0
x1,2_20 0
x1,2_21 0
x1,2_31 0
x1,2_34 0
x1,3_3 0
x1,3_7 0
x1,3_10 0
x1,3_13 0
x1,3_14 0
x1,3_17 1
x1,3_20 0
x1,3_21 0
x1,3_31 0
x1,3_34 0
x1,4_3 0
x1,4_7 0
x1,4_10 0
x1,4_13 0
x1,4_14 0
x1,4_17 0
x1,4_20 0
x1,4_21 0
x1,4_31 1
x1,4_34 0
x1,5_3 0
x1,5_7 0
x1,5_10 0
x1,5_13 0
x1,5_14 0
x1,5_17 0
x1,5_20 0
x1,5_21 0
x1,5_31 0
x1,5_34 0
x1,6_3 0
x1,6_7 0
x1,6_10 0
x1,6_13 0
x1,6_14 0
x1,6_17 0
x1,6_20 0
x1,6_21 0
x1,6_31 0
x1,6_34 0
x1,7_3 0
x1,7_7 0
x1,7_10 0
x1,7_13 0
x1,7_14 0
x1,7_17 0
x1,7_20 0
x1,7_21 0
x1,7_31 0
x1,7_34 0
x1,8_3 0
x1,8_7 0
x1,8_10 0
x1,8_13 0
x1,8_14 0
x1,8_17 0
x1,8_20 0
x1,8_21 0
x1,8_31 0
x1,8_34 0
x1,9_3 0
x1,9_7 0
x1,9_10 0
x1,9_13 0
x1,9_14 0
x1,9_17 0
x1,9_20 0
x1,9_21 0
x1,9_31 0
x1,9_34 0
x1,10_3 0
x1,10_7 0
x1,10_10 0
x1,10_13 0
x1,10_14 0
x1,10_17 0
x1,10_20 0
x1,10_21 0
x1,10_31 0
x1,10_34 0
x2,3_3 0
x2,3_7 1
x2,3_10 0
x2,3_13 0
x2,3_14 0
x2,3_17 0
x2,3_20 0
x2,3_21 0
x2,3_31 0
x2,3_34 0
x2,4_3 0
x2,4_7 0
x2,4_10 0
x2,4_13 0
x2,4_14 0
x2,4_17 0
x2,4_20 0
x2,4_21 1
x2,4_31 0
x2,4_34 0
x2,5_3 0
x2,5_7 0
x2,5_10 0
x2,5_13 0
x2,5_14 0
x2,5_17 0
x2,5_20 0
x2,5_21 0
x2,5_31 0
x2,5_34 0
x2,6_3 0
x2,6_7 0
x2,6_10 0
x2,6_13 0
x2,6_14 0
x2,6_17 0
x2,6_20 0
x2,6_21 0
x2,6_31 0
x2,6_34 0
x2,7_3 0
x2,7_7 0
x2,7_10 0
x2,7_13 0
x2,7_14 0
x2,7_17 0
x2,7_20 0
x2,7_21 0
x2,7_31 0
x2,7_34 0
x2,8_3 0
x2,8_7 0
x2,8_10 0
x2,8_13 0
x2,8_14 0
x2,8_17 0
x2,8_20 0
x2,8_21 0
x2,8_31 0
x2,8_34 0
x2,9_3 0
x2,9_7 0
x2,9_10 0
x2,9_13 0
x2,9_14 0
x2,9_17 0
x2,9_20 0
x2,9_21 0
x2,9_31 0
x2,9_34 0
x2,10_3 0
x2,10_7 0
x2,10_10 0
x2,10_13 0
x2,10_14 0
x2,10_17 0
x2,10_20 0
x2,10_21 0
x2,10_31 0
x2,10_34 0
x3,4_3 0
x3,4_7 0
x3,4_10 0
x3,4_13 0
x3,4_14 1
x3,4_17 0
x3,4_20 0
x3,4_21 0
x3,4_31 0
x3,4_34 0
x3,5_3 0
x3,5_7 0
x3,5_10 0
x3,5_13 0
x3,5_14 0
x3,5_17 0
x3,5_20 0
x3,5_21 0
x3,5_31 0
x3,5_34 0
x3,6_3 0
x3,6_7 0
x3,6_10 0
x3,6_13 0
x3,6_14 0
x3,6_17 0
x3,6_20 0
x3,6_21 0
x3,6_31 0
x3,6_34 0
x3,7_3 0
x3,7_7 0
x3,7_10 0
x3,7_13 0
x3,7_14 0
x3,7_17 0
x3,7_20 0
x3,7_21 0
x3,7_31 0
x3,7_34 0
x3,8_3 0
x3,8_7 0
x3,8_10 0
x3,8_13 0
x3,8_14 0
x3,8_17 0
x3,8_20 0
x3,8_21 0
x3,8_31 0
x3,8_34 0
x3,9_3 0
x3,9_7 0
x3,9_10 0
x3,9_13 0
x3,9_14 0
x3,9_17 0
x3,9_20 0
x3,9_21 0
x3,9_31 0
x3,9_34 0
x3,10_3 0
x3,10_7 0
x3,10_10 0
x3,10_13 0
x3,10_14 0
x3,10_17 0
x3,10_20 0
x3,10_21 0
x3,10_31 0
x3,10_34 0
x4,5_3 0
x4,5_7 0
x4,5_10 0
x4,5_13 0
x4,5_14 0
x4,5_17 0
x4,5_20 0
x4,5_21 0
x4,5_31 0
x4,5_34 0
x4,6_3 0
x4,6_7 0
x4,6_10 0
x4,6_13 0
x4,6_14 0
x4,6_17 0
x4,6_20 0
x4,6_21 0
x4,6_31 0
x4,6_34 0
x4,7_3 0
x4,7_7 0
x4,7_10 0
x4,7_13 0
x4,7_14 0
x4,7_17 0
x4,7_20 0
x4,7_21 0
x4,7_31 0
x4,7_34 0
x4,8_3 0
x4,8_7 0
x4,8_10 0
x4,8_13 0
x4,8_14 0
x4,8_17 0
x4,8_20 0
x4,8_21 0
x4,8_31 0
x4,8_34 0
x4,9_3 0
x4,9_7 0
x4,9_10 0
x4,9_13 0
x4,9_14 0
x4,9_17 0
x4,9_20 0
x4,9_21 0
x4,9_31 0
x4,9_34 0
x4,10_3 0
x4,10_7 0
x4,10_10 0
x4,10_13 0
x4,10_14 0
x4,10_17 0
x4,10_20 0
x4,10_21 0
x4,10_31 0
x4,10_34 0
x5,6_3 0
x5,6_7 0
x5,6_10 0
x5,6_13 0
x5,6_14 0
x5,6_17 0
x5,6_20 0
x5,6_21 0
x5,6_31 0
x5,6_34 0
x5,7_3 0
x5,7_7 0
x5,7_10 0
x5,7_13 0
x5,7_14 0
x5,7_17 0
x5,7_20 0
x5,7_21 0
x5,7_31 0
x5,7_34 0
x5,8_3 0
x5,8_7 0
x5,8_10 0
x5,8_13 0
x5,8_14 0
x5,8_17 0
x5,8_20 0
x5,8_21 0
x5,8_31 0
x5,8_34 0
x5,9_3 0
x5,9_7 0
x5,9_10 0
x5,9_13 0
x5,9_14 0
x5,9_17 0
x5,9_20 0
x5,9_21 0
x5,9_31 0
x5,9_34 0
x5,10_3 0
x5,10_7 0
x5,10_10 0
x5,10_13 0
x5,10_14 0
x5,10_17 0
x5,10_20 0
x5,10_21 0
x5,10_31 0
x5,10_34 0
x6,7_3 0
x6,7_7 0
x6,7_10 0
x6,7_13 0
x6,7_14 0
x6,7_17 0
x6,7_20 0
x6,7_21 0
x6,7_31 0
x6,7_34 0
x6,8_3 0
x6,8_7 0
x6,8_10 0
x6,8_13 0
x6,8_14 0
x6,8_17 0
x6,8_20 0
x6,8_21 0
x6,8_31 0
x6,8_34 0
x6,9_3 0
x6,9_7 0
x6,9_10 0
x6,9_13 0
x6,9_14 0
x6,9_17 0
x6,9_20 0
x6,9_21 0
x6,9_31 0
x6,9_34 0
x6,10_3 0
x6,10_7 0
x6,10_10 0
x6,10_13 0
x6,10_14 0
x6,10_17 0
x6,10_20 0
x6,10_21 0
x6,10_31 0
x6,10_34 0
x7,8_3 0
x7,8_7 0
x7,8_10 0
x7,8_13 0
x7,8_14 0
x7,8_17 0
x7,8_20 0
x7,8_21 0
x7,8_31 0
x7,8_34 0
x7,9_3 0
x7,9_7 0
x7,9_10 0
x7,9_13 0
x7,9_14 0
x7,9_17 0
x7,9_20 0
x7,9_21 0
x7,9_31 0
x7,9_34 0
x7,10_3 0
x7,10_7 0
x7,10_10 0
x7,10_13 0
x7,10_14 0
x7,10_17 0
x7,10_20 0
x7,10_21 0
x7,10_31 0
x7,10_34 0
x8,9_3 0
x8,9_7 0
x8,9_10 0
x8,9_13 0
x8,9_14 0
x8,9_17 0
x8,9_20 0
x8,9_21 0
x8,9_31 0
x8,9_34 0
x8,10_3 0
x8,10_7 0
x8,10_10 0
x8,10_13 0
x8,10_14 0
x8,10_17 0
x8,10_20 0
x8,10_21 0
x8,10_31 0
x8,10_34 0
x9,10_3 0
x9,10_7 0
x9,10_10 0
x9,10_13 0
x9,10_14 0
x9,10_17 0
x9,10_20 0
x9,10_21 0
x9,10_31 0
x9,10_34 0
z0 1
z1 1
z2 1
z3 1
z4 1
z5 0
z6 0
z7 0
z8 0
z9 0
z10 0
p0 0
p1 3
p2 13
p3 20
p4 34
p5 35
p6 36
p7 37
p8 38
p9 39
p10 40
